NAME          DCAP_3_4_2_500_SS475
ROWS
 N  OBJ
 L  CON1
 L  CON2
 L  CON3
 L  CON4
 L  CON5
 L  CON6
 L  CON7
 L  CON8
 L  CON9
 L  CON10
 L  CON11
 L  CON12
 E  CON13
 E  CON14
 E  CON15
 E  CON16
 E  CON17
 E  CON18
 E  CON19
 E  CON20
COLUMNS
    x[1,1]    OBJ       6.180167      CON1      1.000000    
    x[1,1]    CON7      -1.000000     CON8      -1.000000   
    x[1,2]    OBJ       5.039546      CON2      1.000000    
    x[1,2]    CON8      -1.000000   
    x[2,1]    OBJ       6.732585      CON3      1.000000    
    x[2,1]    CON9      -1.000000     CON10     -1.000000   
    x[2,2]    OBJ       7.443064      CON4      1.000000    
    x[2,2]    CON10     -1.000000   
    x[3,1]    OBJ       6.563535      CON5      1.000000    
    x[3,1]    CON11     -1.000000     CON12     -1.000000   
    x[3,2]    OBJ       6.054841      CON6      1.000000    
    x[3,2]    CON12     -1.000000   
    MARKER    'MARKER'                'INTORG'
    u[1,1]    OBJ       48.076654     CON1      -1.000000   
    u[1,2]    OBJ       49.466655     CON2      -1.000000   
    u[2,1]    OBJ       49.996186     CON3      -1.000000   
    u[2,2]    OBJ       32.230043     CON4      -1.000000   
    u[3,1]    OBJ       20.066487     CON5      -1.000000   
    u[3,2]    OBJ       27.484319     CON6      -1.000000   
    y[1,1,1]  OBJ       9.108450      CON7      0.963394    
    y[1,1,1]  CON13     1.000000    
    y[1,1,2]  OBJ       9.543358      CON8      1.458188    
    y[1,1,2]  CON14     1.000000    
    y[1,2,1]  OBJ       7.715889      CON7      0.612382    
    y[1,2,1]  CON15     1.000000    
    y[1,2,2]  OBJ       8.994083      CON8      1.039323    
    y[1,2,2]  CON16     1.000000    
    y[1,3,1]  OBJ       7.010564      CON7      1.219113    
    y[1,3,1]  CON17     1.000000    
    y[1,3,2]  OBJ       6.226230      CON8      1.134472    
    y[1,3,2]  CON18     1.000000    
    y[1,4,1]  OBJ       7.247746      CON7      1.091533    
    y[1,4,1]  CON19     1.000000    
    y[1,4,2]  OBJ       7.039385      CON8      1.244254    
    y[1,4,2]  CON20     1.000000    
    y[2,1,1]  OBJ       9.750803      CON9      0.963394    
    y[2,1,1]  CON13     1.000000    
    y[2,1,2]  OBJ       7.281341      CON10     1.458188    
    y[2,1,2]  CON14     1.000000    
    y[2,2,1]  OBJ       8.673797      CON9      0.612382    
    y[2,2,1]  CON15     1.000000    
    y[2,2,2]  OBJ       5.521745      CON10     1.039323    
    y[2,2,2]  CON16     1.000000    
    y[2,3,1]  OBJ       8.328563      CON9      1.219113    
    y[2,3,1]  CON17     1.000000    
    y[2,3,2]  OBJ       9.756636      CON10     1.134472    
    y[2,3,2]  CON18     1.000000    
    y[2,4,1]  OBJ       5.925389      CON9      1.091533    
    y[2,4,1]  CON19     1.000000    
    y[2,4,2]  OBJ       5.596301      CON10     1.244254    
    y[2,4,2]  CON20     1.000000    
    y[3,1,1]  OBJ       6.453573      CON11     0.963394    
    y[3,1,1]  CON13     1.000000    
    y[3,1,2]  OBJ       9.468303      CON12     1.458188    
    y[3,1,2]  CON14     1.000000    
    y[3,2,1]  OBJ       7.052854      CON11     0.612382    
    y[3,2,1]  CON15     1.000000    
    y[3,2,2]  OBJ       8.123028      CON12     1.039323    
    y[3,2,2]  CON16     1.000000    
    y[3,3,1]  OBJ       9.991322      CON11     1.219113    
    y[3,3,1]  CON17     1.000000    
    y[3,3,2]  OBJ       9.580713      CON12     1.134472    
    y[3,3,2]  CON18     1.000000    
    y[3,4,1]  OBJ       6.822493      CON11     1.091533    
    y[3,4,1]  CON19     1.000000    
    y[3,4,2]  OBJ       8.861540      CON12     1.244254    
    y[3,4,2]  CON20     1.000000    
    z[1,1]    OBJ       888.250053    CON13     1.000000    
    z[1,2]    OBJ       669.968815    CON14     1.000000    
    z[2,1]    OBJ       554.623523    CON15     1.000000    
    z[2,2]    OBJ       799.327847    CON16     1.000000    
    z[3,1]    OBJ       598.719619    CON17     1.000000    
    z[3,2]    OBJ       855.068268    CON18     1.000000    
    z[4,1]    OBJ       794.022762    CON19     1.000000    
    z[4,2]    OBJ       726.723240    CON20     1.000000    
    MARKER    'MARKER'                 'INTEND'
RHS
    RHS       CON1      -0.000000     CON2      -0.000000   
    RHS       CON3      -0.000000     CON4      -0.000000   
    RHS       CON5      -0.000000     CON6      -0.000000   
    RHS       CON7      -0.000000     CON8      -0.000000   
    RHS       CON9      -0.000000     CON10     -0.000000   
    RHS       CON11     -0.000000     CON12     -0.000000   
    RHS       CON13     1.000000      CON14     1.000000    
    RHS       CON15     1.000000      CON16     1.000000    
    RHS       CON17     1.000000      CON18     1.000000    
    RHS       CON19     1.000000      CON20     1.000000    
BOUNDS
 BV BOUND     u[1,1]  
 BV BOUND     u[1,2]  
 BV BOUND     u[2,1]  
 BV BOUND     u[2,2]  
 BV BOUND     u[3,1]  
 BV BOUND     u[3,2]  
 BV BOUND     y[1,1,1]
 BV BOUND     y[1,1,2]
 BV BOUND     y[1,2,1]
 BV BOUND     y[1,2,2]
 BV BOUND     y[1,3,1]
 BV BOUND     y[1,3,2]
 BV BOUND     y[1,4,1]
 BV BOUND     y[1,4,2]
 BV BOUND     y[2,1,1]
 BV BOUND     y[2,1,2]
 BV BOUND     y[2,2,1]
 BV BOUND     y[2,2,2]
 BV BOUND     y[2,3,1]
 BV BOUND     y[2,3,2]
 BV BOUND     y[2,4,1]
 BV BOUND     y[2,4,2]
 BV BOUND     y[3,1,1]
 BV BOUND     y[3,1,2]
 BV BOUND     y[3,2,1]
 BV BOUND     y[3,2,2]
 BV BOUND     y[3,3,1]
 BV BOUND     y[3,3,2]
 BV BOUND     y[3,4,1]
 BV BOUND     y[3,4,2]
 BV BOUND     z[1,1]  
 BV BOUND     z[1,2]  
 BV BOUND     z[2,1]  
 BV BOUND     z[2,2]  
 BV BOUND     z[3,1]  
 BV BOUND     z[3,2]  
 BV BOUND     z[4,1]  
 BV BOUND     z[4,2]  
ENDATA
